<?xml version = "1.0" encoding="UTF-8" standalone="yes"?>
<CPLEXSolution version="1.2">
 <header
   problemName="arf_2.0.lp"
   solutionName="incumbent"
   solutionIndex="-1"
   objectiveValue="3"
   solutionTypeValue="3"
   solutionTypeString="primal"
   solutionStatusValue="101"
   solutionStatusString="integer optimal solution"
   solutionMethodString="mip"
   primalFeasible="1"
   dualFeasible="1"
   MIPNodes="0"
   MIPIterations="377"
   writeLevel="1"/>
 <quality
   epInt="1.0000000000000001e-05"
   epRHS="9.9999999999999995e-07"
   maxIntInfeas="0"
   maxPrimalInfeas="0"
   maxX="2"
   maxSlack="12"/>
 <linearConstraints>
  <constraint name="c1" index="0" slack="0"/>
  <constraint name="c2" index="1" slack="0"/>
  <constraint name="c3" index="2" slack="0"/>
  <constraint name="c4" index="3" slack="0"/>
  <constraint name="c5" index="4" slack="0"/>
  <constraint name="c6" index="5" slack="0"/>
  <constraint name="c7" index="6" slack="0"/>
  <constraint name="c8" index="7" slack="0"/>
  <constraint name="c9" index="8" slack="0"/>
  <constraint name="c10" index="9" slack="0"/>
  <constraint name="c11" index="10" slack="0"/>
  <constraint name="c12" index="11" slack="0"/>
  <constraint name="c13" index="12" slack="0"/>
  <constraint name="c14" index="13" slack="0"/>
  <constraint name="c15" index="14" slack="0"/>
  <constraint name="c16" index="15" slack="0"/>
  <constraint name="c17" index="16" slack="0"/>
  <constraint name="c18" index="17" slack="0"/>
  <constraint name="c19" index="18" slack="0"/>
  <constraint name="c20" index="19" slack="0"/>
  <constraint name="c21" index="20" slack="0"/>
  <constraint name="c22" index="21" slack="0"/>
  <constraint name="c23" index="22" slack="0"/>
  <constraint name="c24" index="23" slack="0"/>
  <constraint name="c25" index="24" slack="0"/>
  <constraint name="c26" index="25" slack="0"/>
  <constraint name="c27" index="26" slack="0"/>
  <constraint name="c28" index="27" slack="0"/>
  <constraint name="c29" index="28" slack="0"/>
  <constraint name="c30" index="29" slack="0"/>
  <constraint name="c31" index="30" slack="0"/>
  <constraint name="c32" index="31" slack="1"/>
  <constraint name="c33" index="32" slack="0"/>
  <constraint name="c34" index="33" slack="0"/>
  <constraint name="c35" index="34" slack="1"/>
  <constraint name="c36" index="35" slack="0"/>
  <constraint name="c37" index="36" slack="1"/>
  <constraint name="c38" index="37" slack="0"/>
  <constraint name="c39" index="38" slack="0"/>
  <constraint name="c40" index="39" slack="1"/>
  <constraint name="c41" index="40" slack="0"/>
  <constraint name="c42" index="41" slack="2"/>
  <constraint name="c43" index="42" slack="0"/>
  <constraint name="c44" index="43" slack="0"/>
  <constraint name="c45" index="44" slack="1"/>
  <constraint name="c46" index="45" slack="0"/>
  <constraint name="c47" index="46" slack="1"/>
  <constraint name="c48" index="47" slack="0"/>
  <constraint name="c49" index="48" slack="1"/>
  <constraint name="c50" index="49" slack="0"/>
  <constraint name="c51" index="50" slack="0"/>
  <constraint name="c52" index="51" slack="2"/>
  <constraint name="c53" index="52" slack="0"/>
  <constraint name="c54" index="53" slack="2"/>
  <constraint name="c55" index="54" slack="0"/>
  <constraint name="c56" index="55" slack="0"/>
  <constraint name="c57" index="56" slack="0"/>
  <constraint name="c58" index="57" slack="0"/>
  <constraint name="c59" index="58" slack="1"/>
  <constraint name="c60" index="59" slack="0"/>
  <constraint name="c61" index="60" slack="1"/>
  <constraint name="c62" index="61" slack="0"/>
  <constraint name="c63" index="62" slack="0"/>
  <constraint name="c64" index="63" slack="0"/>
  <constraint name="c65" index="64" slack="1"/>
  <constraint name="c66" index="65" slack="0"/>
  <constraint name="c67" index="66" slack="0"/>
  <constraint name="c68" index="67" slack="0"/>
  <constraint name="c69" index="68" slack="7"/>
  <constraint name="c70" index="69" slack="5"/>
  <constraint name="c71" index="70" slack="1"/>
  <constraint name="c72" index="71" slack="1"/>
  <constraint name="c73" index="72" slack="4"/>
  <constraint name="c74" index="73" slack="0"/>
  <constraint name="c75" index="74" slack="2"/>
  <constraint name="c76" index="75" slack="0"/>
  <constraint name="c77" index="76" slack="3"/>
  <constraint name="c78" index="77" slack="0"/>
  <constraint name="c79" index="78" slack="4"/>
  <constraint name="c80" index="79" slack="2"/>
  <constraint name="c81" index="80" slack="2"/>
  <constraint name="c82" index="81" slack="0"/>
  <constraint name="c83" index="82" slack="1"/>
  <constraint name="c84" index="83" slack="1"/>
  <constraint name="c85" index="84" slack="2"/>
  <constraint name="c86" index="85" slack="2"/>
  <constraint name="c87" index="86" slack="1"/>
  <constraint name="c88" index="87" slack="3"/>
  <constraint name="c89" index="88" slack="0"/>
  <constraint name="c90" index="89" slack="0"/>
  <constraint name="c91" index="90" slack="1"/>
  <constraint name="c92" index="91" slack="0"/>
  <constraint name="c93" index="92" slack="0"/>
  <constraint name="c94" index="93" slack="1"/>
  <constraint name="c95" index="94" slack="7"/>
  <constraint name="c96" index="95" slack="0"/>
  <constraint name="c97" index="96" slack="12"/>
  <constraint name="c98" index="97" slack="0"/>
 </linearConstraints>
 <variables>
  <variable name="M1" index="0" value="2"/>
  <variable name="M2" index="1" value="1"/>
  <variable name="x0,3" index="2" value="0"/>
  <variable name="x0,4" index="3" value="-0"/>
  <variable name="x0,5" index="4" value="-0"/>
  <variable name="x0,6" index="5" value="-0"/>
  <variable name="x0,7" index="6" value="-0"/>
  <variable name="x0,8" index="7" value="-0"/>
  <variable name="x0,9" index="8" value="-0"/>
  <variable name="x0,10" index="9" value="-0"/>
  <variable name="x0,11" index="10" value="-0"/>
  <variable name="x0,12" index="11" value="-0"/>
  <variable name="x0,13" index="12" value="-0"/>
  <variable name="x0,14" index="13" value="-0"/>
  <variable name="x0,15" index="14" value="-0"/>
  <variable name="x0,16" index="15" value="-0"/>
  <variable name="x0,17" index="16" value="1"/>
  <variable name="x0,18" index="17" value="-0"/>
  <variable name="x0,19" index="18" value="-0"/>
  <variable name="x0,20" index="19" value="0"/>
  <variable name="x0,21" index="20" value="-0"/>
  <variable name="x1,3" index="21" value="0"/>
  <variable name="x1,4" index="22" value="-0"/>
  <variable name="x1,5" index="23" value="-0"/>
  <variable name="x1,6" index="24" value="-0"/>
  <variable name="x1,7" index="25" value="-0"/>
  <variable name="x1,8" index="26" value="-0"/>
  <variable name="x1,9" index="27" value="-0"/>
  <variable name="x1,10" index="28" value="-0"/>
  <variable name="x1,11" index="29" value="-0"/>
  <variable name="x1,12" index="30" value="-0"/>
  <variable name="x1,13" index="31" value="-0"/>
  <variable name="x1,14" index="32" value="-0"/>
  <variable name="x1,15" index="33" value="1"/>
  <variable name="x1,16" index="34" value="-0"/>
  <variable name="x1,17" index="35" value="-0"/>
  <variable name="x1,18" index="36" value="-0"/>
  <variable name="x1,19" index="37" value="-0"/>
  <variable name="x1,20" index="38" value="0"/>
  <variable name="x1,21" index="39" value="-0"/>
  <variable name="x2,10" index="40" value="-0"/>
  <variable name="x2,11" index="41" value="-0"/>
  <variable name="x2,12" index="42" value="-0"/>
  <variable name="x2,13" index="43" value="-0"/>
  <variable name="x2,14" index="44" value="-0"/>
  <variable name="x2,15" index="45" value="-0"/>
  <variable name="x2,16" index="46" value="-0"/>
  <variable name="x2,17" index="47" value="-0"/>
  <variable name="x2,18" index="48" value="-0"/>
  <variable name="x2,19" index="49" value="-0"/>
  <variable name="x2,20" index="50" value="0"/>
  <variable name="x2,21" index="51" value="1"/>
  <variable name="x3,10" index="52" value="-0"/>
  <variable name="x3,11" index="53" value="0"/>
  <variable name="x3,12" index="54" value="-0"/>
  <variable name="x3,13" index="55" value="-0"/>
  <variable name="x3,14" index="56" value="-0"/>
  <variable name="x3,15" index="57" value="-0"/>
  <variable name="x3,16" index="58" value="-0"/>
  <variable name="x3,17" index="59" value="-0"/>
  <variable name="x3,18" index="60" value="-0"/>
  <variable name="x3,19" index="61" value="-0"/>
  <variable name="x3,20" index="62" value="0"/>
  <variable name="x3,21" index="63" value="1"/>
  <variable name="x4,10" index="64" value="-0"/>
  <variable name="x4,11" index="65" value="-0"/>
  <variable name="x4,12" index="66" value="-0"/>
  <variable name="x4,13" index="67" value="-0"/>
  <variable name="x4,14" index="68" value="-0"/>
  <variable name="x4,15" index="69" value="-0"/>
  <variable name="x4,16" index="70" value="-0"/>
  <variable name="x4,17" index="71" value="-0"/>
  <variable name="x4,18" index="72" value="-0"/>
  <variable name="x4,19" index="73" value="1"/>
  <variable name="x4,20" index="74" value="0"/>
  <variable name="x4,21" index="75" value="-0"/>
  <variable name="x5,10" index="76" value="-0"/>
  <variable name="x5,11" index="77" value="-0"/>
  <variable name="x5,12" index="78" value="-0"/>
  <variable name="x5,13" index="79" value="0"/>
  <variable name="x5,14" index="80" value="-0"/>
  <variable name="x5,15" index="81" value="1"/>
  <variable name="x5,16" index="82" value="-0"/>
  <variable name="x5,17" index="83" value="-0"/>
  <variable name="x5,18" index="84" value="0"/>
  <variable name="x5,19" index="85" value="-0"/>
  <variable name="x5,20" index="86" value="0"/>
  <variable name="x5,21" index="87" value="0"/>
  <variable name="x6,3" index="88" value="-0"/>
  <variable name="x6,4" index="89" value="-0"/>
  <variable name="x6,5" index="90" value="-0"/>
  <variable name="x6,6" index="91" value="-0"/>
  <variable name="x6,7" index="92" value="-0"/>
  <variable name="x6,8" index="93" value="-0"/>
  <variable name="x6,9" index="94" value="-0"/>
  <variable name="x6,10" index="95" value="-0"/>
  <variable name="x6,11" index="96" value="-0"/>
  <variable name="x6,12" index="97" value="-0"/>
  <variable name="x6,13" index="98" value="-0"/>
  <variable name="x6,14" index="99" value="-0"/>
  <variable name="x6,15" index="100" value="-0"/>
  <variable name="x6,16" index="101" value="-0"/>
  <variable name="x6,17" index="102" value="-0"/>
  <variable name="x6,18" index="103" value="-0"/>
  <variable name="x6,19" index="104" value="1"/>
  <variable name="x6,20" index="105" value="0"/>
  <variable name="x6,21" index="106" value="-0"/>
  <variable name="x7,3" index="107" value="-0"/>
  <variable name="x7,4" index="108" value="-0"/>
  <variable name="x7,5" index="109" value="-0"/>
  <variable name="x7,6" index="110" value="-0"/>
  <variable name="x7,7" index="111" value="-0"/>
  <variable name="x7,8" index="112" value="-0"/>
  <variable name="x7,9" index="113" value="-0"/>
  <variable name="x7,10" index="114" value="-0"/>
  <variable name="x7,11" index="115" value="-0"/>
  <variable name="x7,12" index="116" value="-0"/>
  <variable name="x7,13" index="117" value="-0"/>
  <variable name="x7,14" index="118" value="-0"/>
  <variable name="x7,15" index="119" value="-0"/>
  <variable name="x7,16" index="120" value="-0"/>
  <variable name="x7,17" index="121" value="1"/>
  <variable name="x7,18" index="122" value="-0"/>
  <variable name="x7,19" index="123" value="-0"/>
  <variable name="x7,20" index="124" value="0"/>
  <variable name="x7,21" index="125" value="-0"/>
  <variable name="x8,2" index="126" value="-0"/>
  <variable name="x8,3" index="127" value="-0"/>
  <variable name="x8,4" index="128" value="-0"/>
  <variable name="x8,5" index="129" value="-0"/>
  <variable name="x8,6" index="130" value="-0"/>
  <variable name="x8,7" index="131" value="-0"/>
  <variable name="x8,8" index="132" value="-0"/>
  <variable name="x8,9" index="133" value="1"/>
  <variable name="x8,10" index="134" value="-0"/>
  <variable name="x8,11" index="135" value="-0"/>
  <variable name="x8,12" index="136" value="-0"/>
  <variable name="x8,13" index="137" value="-0"/>
  <variable name="x8,14" index="138" value="-0"/>
  <variable name="x8,15" index="139" value="-0"/>
  <variable name="x8,16" index="140" value="-0"/>
  <variable name="x8,17" index="141" value="-0"/>
  <variable name="x8,18" index="142" value="-0"/>
  <variable name="x8,19" index="143" value="-0"/>
  <variable name="x8,20" index="144" value="-0"/>
  <variable name="x9,9" index="145" value="0"/>
  <variable name="x9,10" index="146" value="-0"/>
  <variable name="x9,11" index="147" value="-0"/>
  <variable name="x9,12" index="148" value="-0"/>
  <variable name="x9,13" index="149" value="-0"/>
  <variable name="x9,14" index="150" value="-0"/>
  <variable name="x9,15" index="151" value="-0"/>
  <variable name="x9,16" index="152" value="-0"/>
  <variable name="x9,17" index="153" value="-0"/>
  <variable name="x9,18" index="154" value="-0"/>
  <variable name="x9,19" index="155" value="1"/>
  <variable name="x9,20" index="156" value="-0"/>
  <variable name="x10,9" index="157" value="0"/>
  <variable name="x10,10" index="158" value="-0"/>
  <variable name="x10,11" index="159" value="-0"/>
  <variable name="x10,12" index="160" value="-0"/>
  <variable name="x10,13" index="161" value="-0"/>
  <variable name="x10,14" index="162" value="1"/>
  <variable name="x10,15" index="163" value="-0"/>
  <variable name="x10,16" index="164" value="-0"/>
  <variable name="x10,17" index="165" value="-0"/>
  <variable name="x10,18" index="166" value="-0"/>
  <variable name="x10,19" index="167" value="-0"/>
  <variable name="x10,20" index="168" value="0"/>
  <variable name="x11,2" index="169" value="-0"/>
  <variable name="x11,3" index="170" value="-0"/>
  <variable name="x11,4" index="171" value="0"/>
  <variable name="x11,5" index="172" value="-0"/>
  <variable name="x11,6" index="173" value="-0"/>
  <variable name="x11,7" index="174" value="-0"/>
  <variable name="x11,8" index="175" value="-0"/>
  <variable name="x11,9" index="176" value="-0"/>
  <variable name="x11,10" index="177" value="-0"/>
  <variable name="x11,11" index="178" value="-0"/>
  <variable name="x11,12" index="179" value="-0"/>
  <variable name="x11,13" index="180" value="-0"/>
  <variable name="x11,14" index="181" value="-0"/>
  <variable name="x11,15" index="182" value="0"/>
  <variable name="x11,16" index="183" value="1"/>
  <variable name="x11,17" index="184" value="-0"/>
  <variable name="x11,18" index="185" value="-0"/>
  <variable name="x11,19" index="186" value="-0"/>
  <variable name="x11,20" index="187" value="-0"/>
  <variable name="x12,8" index="188" value="0"/>
  <variable name="x12,9" index="189" value="-0"/>
  <variable name="x12,10" index="190" value="-0"/>
  <variable name="x12,11" index="191" value="-0"/>
  <variable name="x12,12" index="192" value="-0"/>
  <variable name="x12,13" index="193" value="-0"/>
  <variable name="x12,14" index="194" value="-0"/>
  <variable name="x12,15" index="195" value="1"/>
  <variable name="x12,16" index="196" value="-0"/>
  <variable name="x12,17" index="197" value="-0"/>
  <variable name="x12,18" index="198" value="-0"/>
  <variable name="x12,19" index="199" value="-0"/>
  <variable name="x13,8" index="200" value="0"/>
  <variable name="x13,9" index="201" value="-0"/>
  <variable name="x13,10" index="202" value="-0"/>
  <variable name="x13,11" index="203" value="-0"/>
  <variable name="x13,12" index="204" value="-0"/>
  <variable name="x13,13" index="205" value="1"/>
  <variable name="x13,14" index="206" value="-0"/>
  <variable name="x13,15" index="207" value="-0"/>
  <variable name="x13,16" index="208" value="-0"/>
  <variable name="x13,17" index="209" value="-0"/>
  <variable name="x13,18" index="210" value="0"/>
  <variable name="x13,19" index="211" value="-0"/>
  <variable name="x14,6" index="212" value="0"/>
  <variable name="x14,7" index="213" value="-0"/>
  <variable name="x14,8" index="214" value="-0"/>
  <variable name="x14,9" index="215" value="1"/>
  <variable name="x14,10" index="216" value="-0"/>
  <variable name="x14,11" index="217" value="-0"/>
  <variable name="x14,12" index="218" value="-0"/>
  <variable name="x14,13" index="219" value="0"/>
  <variable name="x14,14" index="220" value="-0"/>
  <variable name="x14,15" index="221" value="-0"/>
  <variable name="x14,16" index="222" value="-0"/>
  <variable name="x14,17" index="223" value="-0"/>
  <variable name="x15,6" index="224" value="0"/>
  <variable name="x15,7" index="225" value="0"/>
  <variable name="x15,8" index="226" value="-0"/>
  <variable name="x15,9" index="227" value="1"/>
  <variable name="x15,10" index="228" value="-0"/>
  <variable name="x15,11" index="229" value="-0"/>
  <variable name="x15,12" index="230" value="-0"/>
  <variable name="x15,13" index="231" value="-0"/>
  <variable name="x15,14" index="232" value="-0"/>
  <variable name="x15,15" index="233" value="-0"/>
  <variable name="x15,16" index="234" value="-0"/>
  <variable name="x15,17" index="235" value="-0"/>
  <variable name="x16,6" index="236" value="0"/>
  <variable name="x16,7" index="237" value="-0"/>
  <variable name="x16,8" index="238" value="-0"/>
  <variable name="x16,9" index="239" value="-0"/>
  <variable name="x16,10" index="240" value="-0"/>
  <variable name="x16,11" index="241" value="1"/>
  <variable name="x16,12" index="242" value="-0"/>
  <variable name="x16,13" index="243" value="0"/>
  <variable name="x16,14" index="244" value="-0"/>
  <variable name="x16,15" index="245" value="-0"/>
  <variable name="x16,16" index="246" value="-0"/>
  <variable name="x16,17" index="247" value="-0"/>
  <variable name="x17,6" index="248" value="0"/>
  <variable name="x17,7" index="249" value="0"/>
  <variable name="x17,8" index="250" value="-0"/>
  <variable name="x17,9" index="251" value="-0"/>
  <variable name="x17,10" index="252" value="-0"/>
  <variable name="x17,11" index="253" value="1"/>
  <variable name="x17,12" index="254" value="0"/>
  <variable name="x17,13" index="255" value="-0"/>
  <variable name="x17,14" index="256" value="-0"/>
  <variable name="x17,15" index="257" value="-0"/>
  <variable name="x17,16" index="258" value="-0"/>
  <variable name="x17,17" index="259" value="-0"/>
  <variable name="x18,5" index="260" value="0"/>
  <variable name="x18,6" index="261" value="0"/>
  <variable name="x18,7" index="262" value="1"/>
  <variable name="x18,8" index="263" value="-0"/>
  <variable name="x18,9" index="264" value="-0"/>
  <variable name="x18,10" index="265" value="-0"/>
  <variable name="x18,11" index="266" value="-0"/>
  <variable name="x18,12" index="267" value="-0"/>
  <variable name="x18,13" index="268" value="-0"/>
  <variable name="x18,14" index="269" value="-0"/>
  <variable name="x18,15" index="270" value="-0"/>
  <variable name="x18,16" index="271" value="-0"/>
  <variable name="x19,5" index="272" value="0"/>
  <variable name="x19,6" index="273" value="-0"/>
  <variable name="x19,7" index="274" value="-0"/>
  <variable name="x19,8" index="275" value="1"/>
  <variable name="x19,9" index="276" value="-0"/>
  <variable name="x19,10" index="277" value="-0"/>
  <variable name="x19,11" index="278" value="-0"/>
  <variable name="x19,12" index="279" value="-0"/>
  <variable name="x19,13" index="280" value="-0"/>
  <variable name="x19,14" index="281" value="-0"/>
  <variable name="x19,15" index="282" value="-0"/>
  <variable name="x19,16" index="283" value="0"/>
  <variable name="x20,3" index="284" value="-0"/>
  <variable name="x20,4" index="285" value="1"/>
  <variable name="x20,5" index="286" value="-0"/>
  <variable name="x20,6" index="287" value="-0"/>
  <variable name="x20,7" index="288" value="-0"/>
  <variable name="x20,8" index="289" value="-0"/>
  <variable name="x20,9" index="290" value="-0"/>
  <variable name="x20,10" index="291" value="-0"/>
  <variable name="x20,11" index="292" value="-0"/>
  <variable name="x20,12" index="293" value="-0"/>
  <variable name="x20,13" index="294" value="-0"/>
  <variable name="x20,14" index="295" value="-0"/>
  <variable name="x21,3" index="296" value="1"/>
  <variable name="x21,4" index="297" value="-0"/>
  <variable name="x21,5" index="298" value="-0"/>
  <variable name="x21,6" index="299" value="-0"/>
  <variable name="x21,7" index="300" value="-0"/>
  <variable name="x21,8" index="301" value="-0"/>
  <variable name="x21,9" index="302" value="-0"/>
  <variable name="x21,10" index="303" value="-0"/>
  <variable name="x21,11" index="304" value="-0"/>
  <variable name="x21,12" index="305" value="-0"/>
  <variable name="x21,13" index="306" value="-0"/>
  <variable name="x21,14" index="307" value="0"/>
  <variable name="x22,3" index="308" value="-0"/>
  <variable name="x22,4" index="309" value="-0"/>
  <variable name="x22,5" index="310" value="1"/>
  <variable name="x22,6" index="311" value="0"/>
  <variable name="x22,7" index="312" value="-0"/>
  <variable name="x22,8" index="313" value="-0"/>
  <variable name="x22,9" index="314" value="-0"/>
  <variable name="x22,10" index="315" value="0"/>
  <variable name="x22,11" index="316" value="-0"/>
  <variable name="x22,12" index="317" value="-0"/>
  <variable name="x22,13" index="318" value="-0"/>
  <variable name="x22,14" index="319" value="-0"/>
  <variable name="x23,3" index="320" value="-0"/>
  <variable name="x23,4" index="321" value="-0"/>
  <variable name="x23,5" index="322" value="-0"/>
  <variable name="x23,6" index="323" value="1"/>
  <variable name="x23,7" index="324" value="-0"/>
  <variable name="x23,8" index="325" value="0"/>
  <variable name="x23,9" index="326" value="-0"/>
  <variable name="x23,10" index="327" value="-0"/>
  <variable name="x23,11" index="328" value="0"/>
  <variable name="x23,12" index="329" value="0"/>
  <variable name="x23,13" index="330" value="-0"/>
  <variable name="x23,14" index="331" value="-0"/>
  <variable name="x24,2" index="332" value="1"/>
  <variable name="x24,3" index="333" value="0"/>
  <variable name="x24,4" index="334" value="-0"/>
  <variable name="x24,5" index="335" value="-0"/>
  <variable name="x24,6" index="336" value="-0"/>
  <variable name="x24,7" index="337" value="-0"/>
  <variable name="x24,8" index="338" value="-0"/>
  <variable name="x24,9" index="339" value="-0"/>
  <variable name="x24,10" index="340" value="-0"/>
  <variable name="x24,11" index="341" value="-0"/>
  <variable name="x24,12" index="342" value="-0"/>
  <variable name="x24,13" index="343" value="-0"/>
  <variable name="x25,2" index="344" value="-0"/>
  <variable name="x25,3" index="345" value="0"/>
  <variable name="x25,4" index="346" value="1"/>
  <variable name="x25,5" index="347" value="-0"/>
  <variable name="x25,6" index="348" value="-0"/>
  <variable name="x25,7" index="349" value="0"/>
  <variable name="x25,8" index="350" value="-0"/>
  <variable name="x25,9" index="351" value="-0"/>
  <variable name="x25,10" index="352" value="-0"/>
  <variable name="x25,11" index="353" value="-0"/>
  <variable name="x25,12" index="354" value="-0"/>
  <variable name="x25,13" index="355" value="-0"/>
  <variable name="x26,1" index="356" value="1"/>
  <variable name="x26,2" index="357" value="-0"/>
  <variable name="x26,3" index="358" value="-0"/>
  <variable name="x26,4" index="359" value="-0"/>
  <variable name="x26,5" index="360" value="-0"/>
  <variable name="x26,6" index="361" value="-0"/>
  <variable name="x26,7" index="362" value="-0"/>
  <variable name="x26,8" index="363" value="-0"/>
  <variable name="x26,9" index="364" value="-0"/>
  <variable name="x26,10" index="365" value="-0"/>
  <variable name="x26,11" index="366" value="-0"/>
  <variable name="x26,12" index="367" value="-0"/>
  <variable name="x27,1" index="368" value="0"/>
  <variable name="x27,2" index="369" value="0"/>
  <variable name="x27,3" index="370" value="1"/>
  <variable name="x27,4" index="371" value="0"/>
  <variable name="x27,5" index="372" value="-0"/>
  <variable name="x27,6" index="373" value="-0"/>
  <variable name="x27,7" index="374" value="-0"/>
  <variable name="x27,8" index="375" value="-0"/>
  <variable name="x27,9" index="376" value="-0"/>
  <variable name="x27,10" index="377" value="-0"/>
  <variable name="x27,11" index="378" value="-0"/>
  <variable name="x27,12" index="379" value="-0"/>
  <variable name="x0,2" index="380" value="0"/>
  <variable name="x1,2" index="381" value="0"/>
  <variable name="x6,2" index="382" value="0"/>
  <variable name="x7,2" index="383" value="0"/>
  <variable name="x20,2" index="384" value="0"/>
  <variable name="x21,2" index="385" value="0"/>
  <variable name="x22,2" index="386" value="0"/>
  <variable name="x23,2" index="387" value="0"/>
  <variable name="x14,5" index="388" value="0"/>
  <variable name="x15,5" index="389" value="0"/>
  <variable name="x16,5" index="390" value="0"/>
  <variable name="x17,5" index="391" value="0"/>
  <variable name="x2,9" index="392" value="0"/>
  <variable name="x3,9" index="393" value="0"/>
  <variable name="x4,9" index="394" value="0"/>
  <variable name="x5,9" index="395" value="0"/>
  <variable name="x20,15" index="396" value="0"/>
  <variable name="x21,15" index="397" value="0"/>
  <variable name="x22,15" index="398" value="0"/>
  <variable name="x23,15" index="399" value="0"/>
  <variable name="x14,18" index="400" value="0"/>
  <variable name="x15,18" index="401" value="0"/>
  <variable name="x16,18" index="402" value="0"/>
  <variable name="x17,18" index="403" value="0"/>
  <variable name="x0,22" index="404" value="0"/>
  <variable name="x1,22" index="405" value="0"/>
  <variable name="x2,22" index="406" value="0"/>
  <variable name="x3,22" index="407" value="0"/>
  <variable name="x4,22" index="408" value="0"/>
  <variable name="x5,22" index="409" value="0"/>
  <variable name="x6,22" index="410" value="0"/>
  <variable name="x7,22" index="411" value="0"/>
 </variables>
</CPLEXSolution>
